language Essence 1.3

letting A be 1
letting T be 9
letting X be 3
letting Y be 3
letting Z be 2
letting building be [[0, 0, 0; int(0..2)], [0, 1, 0; int(0..2)], [0, 0, 0; int(0..2)]; int(0..2)]
$ Visualisation for building
$ 0 0 0
$ 0 1 0
$ 0 0 0

